
Gurobi 10.0.1 (linux64, gurobi_cl) logging started Thu May 25 11:51:06 2023

Set parameter WLSAccessID
Set parameter WLSSecret
Set parameter LicenseID to value 2380096
Set parameter Method to value 2
Set parameter LogFile to value "output_data/gurobi_TEMBA_2.0.log"
Set parameter NumericFocus to value 1
Set parameter Threads to value 2
Academic license - for non-commercial use only - registered to a.e.pieruzzi@student.tudelft.nl
Using license file /home/apieruzzi/gurobi.lic

Gurobi Optimizer version 10.0.1 build v10.0.1rc0 (linux64)
Copyright (c) 2023, Gurobi Optimization, LLC

Read LP format model from file output_data/TEMBA_2.0.lp.gz
Reading time = 13.58 seconds
cost: 606997 rows, 465920 columns, 9536788 nonzeros

CPU model: Intel(R) Core(TM) i5-6200U CPU @ 2.30GHz, instruction set [SSE2|AVX|AVX2]
Thread count: 2 physical cores, 4 logical processors, using up to 2 threads

Academic license - for non-commercial use only - registered to a.e.pieruzzi@student.tudelft.nl
Optimize a model with 606997 rows, 465920 columns and 9536788 nonzeros
Model fingerprint: 0xe48c31af
Coefficient statistics:
  Matrix range     [9e-07, 1e+06]
  Objective range  [5e-09, 1e+06]
  Bounds range     [0e+00, 0e+00]
  RHS range        [9e-06, 1e+08]
Warning: Model contains large matrix coefficient range
Presolve removed 518725 rows and 371100 columns
Presolve time: 1.50s
Presolved: 88272 rows, 95525 columns, 1795034 nonzeros

Elapsed ordering time = 5s
Ordering time: 6.42s

Barrier statistics:
 Dense cols : 184
 AA' NZ     : 1.098e+07
 Factor NZ  : 7.205e+07 (roughly 700 MB of memory)
 Factor Ops : 9.906e+10 (roughly 2 seconds per iteration)
 Threads    : 2

                  Objective                Residual
Iter       Primal          Dual         Primal    Dual     Compl     Time
   0   2.72378755e+16 -1.70543621e+16  7.48e+11 1.28e+01  2.79e+13    15s
   1   1.47603605e+16 -2.20338333e+16  3.98e+11 4.05e+04  1.60e+13    19s
   2   9.06021815e+15 -3.28415461e+16  2.48e+11 1.38e+04  9.83e+12    23s
   3   3.44385830e+15 -2.99715048e+16  9.35e+10 1.38e+03  3.64e+12    27s
   4   3.92210511e+14 -2.06771496e+16  1.00e+10 2.44e+02  4.63e+11    32s
   5   9.22749589e+13 -1.02552952e+16  2.01e+09 6.61e+01  1.17e+11    36s
   6   3.91707718e+13 -6.27431086e+15  6.79e+08 3.51e+01  5.16e+10    42s
   7   2.74435501e+13 -2.97253009e+15  4.11e+08 1.47e+01  2.65e+10    47s
   8   1.10153286e+13 -1.23837965e+15  7.10e+07 5.00e+00  7.77e+09    52s
   9   8.72365598e+12 -9.83183410e+14  4.15e+07 4.00e+00  5.70e+09    58s
  10   6.42819311e+12 -3.06878985e+14  2.19e+07 1.05e+00  2.06e+09    63s
  11   2.88139138e+12 -7.02742724e+13  5.48e+06 1.73e-01  4.97e+08    68s
  12   1.93597425e+12 -2.89362167e+13  2.74e+06 5.27e-02  2.28e+08    74s
  13   6.88881144e+11 -4.33667247e+12  2.17e+05 4.88e-04  2.94e+07    81s
  14   1.83418400e+11 -4.15336408e+11  1.67e+04 1.61e-07  3.11e+06    88s
  15   3.67498441e+10 -8.53814924e+10  1.61e+03 1.50e-07  5.71e+05    93s
  16   2.52387629e+09 -9.82633892e+09  3.67e+00 4.83e-07  5.45e+04    98s
  17   4.72821277e+08 -3.06232083e+09  3.07e-01 2.21e-04  1.56e+04   103s
  18   1.21123221e+08 -3.51166379e+08  1.03e-03 2.43e-04  2.09e+03   109s
  19   2.80708260e+07 -7.56951757e+07  2.79e-05 2.52e-04  4.64e+02   114s
  20   7.94755821e+06 -7.23721214e+06  2.44e-06 1.77e-04  7.05e+01   119s
  21   3.46727839e+06 -1.92798499e+06  7.67e-07 1.01e-04  2.49e+01   123s
  22   1.91429304e+06 -4.69373959e+05  3.02e-07 9.75e-06  1.07e+01   129s
  23   1.39849264e+06 -2.84046711e+05  1.86e-07 8.80e-06  7.62e+00   133s
  24   1.13002135e+06 -6.73464492e+03  1.28e-07 6.36e-06  5.15e+00   137s
  25   9.03023450e+05  1.75478874e+05  8.28e-08 4.24e-06  3.29e+00   142s
  26   7.59103858e+05  2.99056506e+05  5.58e-08 2.74e-06  2.08e+00   146s
  27   6.89437913e+05  3.34087836e+05  4.24e-08 2.15e-06  1.61e+00   151s
  28   6.39639720e+05  3.71015469e+05  3.29e-08 1.50e-06  1.21e+00   156s
  29   6.12184345e+05  3.94169450e+05  2.78e-08 1.09e-06  9.82e-01   160s
  30   5.57563560e+05  4.10958960e+05  1.78e-08 8.18e-07  6.62e-01   164s
  31   5.26429047e+05  4.29259015e+05  1.21e-08 5.11e-07  4.38e-01   168s
  32   5.07690906e+05  4.41629380e+05  8.47e-09 3.11e-07  2.97e-01   173s
  33   4.85177318e+05  4.48178213e+05  4.29e-09 2.08e-07  1.67e-01   178s
  34   4.79920947e+05  4.51643419e+05  3.24e-09 1.93e-07  1.28e-01   183s
  35   4.74061019e+05  4.54998392e+05  2.09e-09 2.27e-07  8.64e-02   188s
  36   4.69574385e+05  4.57652077e+05  1.22e-09 2.49e-07  5.42e-02   194s
  37   4.66921269e+05  4.60276966e+05  7.16e-10 2.64e-07  3.03e-02   200s
  38   4.64839382e+05  4.61366618e+05  3.33e-10 2.63e-07  1.61e-02   205s
  39   4.63901235e+05  4.62046515e+05  1.54e-10 2.52e-07  8.77e-03   211s
  40   4.63473301e+05  4.62378790e+05  7.62e-11 2.41e-07  5.33e-03   216s
  41   4.63204316e+05  4.62728060e+05  3.25e-11 2.29e-07  2.49e-03   222s
  42   4.63110171e+05  4.62837598e+05  2.40e-11 2.24e-07  1.55e-03   227s
  43   4.63014763e+05  4.62988109e+05  6.71e-12 2.12e-07  3.82e-04   232s
  44   4.62982159e+05  4.63016659e+05  1.32e-11 2.04e-07  6.47e-05   238s
  45   4.62973454e+05  4.63012918e+05  1.70e-10 1.93e-07  2.34e-05   245s
  46   4.62967832e+05  4.63014122e+05  4.05e-09 2.03e-07  5.20e-06   251s
  47   4.62967141e+05  4.63015656e+05  1.44e-05 2.04e-07  3.27e-06   256s
  48   4.62966228e+05  4.63015341e+05  6.30e-06 2.05e-07  1.48e-06   261s
  49   4.62965926e+05  4.63013339e+05  2.85e-04 2.05e-07  1.12e-06   266s
  50   4.62965378e+05  4.63007252e+05  1.53e-04 2.53e-07  6.97e-07   271s
  51   4.62965272e+05  4.63007736e+05  1.37e-04 2.03e-07  6.03e-07   276s
  52   4.62964963e+05  4.63008157e+05  9.59e-05 2.02e-07  4.19e-07   279s
  53   4.62964963e+05  4.63008157e+05  9.59e-05 2.02e-07  4.19e-07   284s
  54   4.62964963e+05  4.63008157e+05  9.59e-05 2.02e-07  4.19e-07   289s
  55   4.62964837e+05  4.63007783e+05  8.36e-05 2.02e-07  3.88e-07   293s
  56   4.62964563e+05  4.63003090e+05  5.90e-05 2.50e-07  3.14e-07   299s
  57   4.62964494e+05  4.63003451e+05  5.45e-05 2.13e-07  2.88e-07   304s
  58   4.62964435e+05  4.63004067e+05  5.10e-05 2.00e-07  2.61e-07   309s
  59   4.62964375e+05  4.63004257e+05  4.76e-05 1.99e-07  2.43e-07   314s
  60   4.62964068e+05  4.63004690e+05  3.08e-05 1.91e-07  1.55e-07   319s
  61   4.62964068e+05  4.63004690e+05  3.08e-05 1.91e-07  1.55e-07   324s
  62   4.62964068e+05  4.63004690e+05  3.08e-05 1.91e-07  1.55e-07   328s
  63   4.62963965e+05  4.63004588e+05  2.71e-05 1.91e-07  1.40e-07   333s
  64   4.62963790e+05  4.63003799e+05  2.15e-05 1.88e-07  1.81e-07   338s
  65   4.62963374e+05  4.63003078e+05  1.08e-05 1.87e-07  8.81e-08   343s
  66   4.62963249e+05  4.63002962e+05  9.14e-06 1.87e-07  7.10e-08   348s
  67   4.62963176e+05  4.63002365e+05  8.28e-06 1.87e-07  7.48e-08   352s
  68   4.62963162e+05  4.63002294e+05  8.21e-06 1.87e-07  7.44e-08   357s
  69   4.62963097e+05  4.63002103e+05  7.88e-06 1.87e-07  7.29e-08   361s
  70   4.62963030e+05  4.63001729e+05  7.23e-06 1.87e-07  6.59e-08   365s
  71   4.62962848e+05  4.63001221e+05  5.55e-06 1.87e-07  5.81e-08   369s
  72   4.62962848e+05  4.63001221e+05  5.55e-06 1.87e-07  5.81e-08   373s
  73   4.62962848e+05  4.63001221e+05  5.55e-06 1.87e-07  5.81e-08   377s
  74   4.62962720e+05  4.63000831e+05  4.64e-06 1.87e-07  5.08e-08   384s
  75   4.62962720e+05  4.63000830e+05  4.64e-06 1.87e-07  5.17e-08   388s
  76   4.62962720e+05  4.63000830e+05  4.64e-06 1.87e-07  5.17e-08   392s
  77   4.62962667e+05  4.63000500e+05  4.32e-06 1.87e-07  4.80e-08   396s
  78   4.62962667e+05  4.63000500e+05  4.32e-06 1.87e-07  4.88e-08   400s
  79   4.62962667e+05  4.63000500e+05  4.32e-06 1.87e-07  4.88e-08   404s
  80   4.62962667e+05  4.63000500e+05  4.32e-06 1.87e-07  4.89e-08   409s
  81   4.62962609e+05  4.63000154e+05  4.76e-06 1.87e-07  4.60e-08   413s
  82   4.62962579e+05  4.62999258e+05  4.56e-06 1.87e-07  4.71e-08   418s
  83   4.62962455e+05  4.62997571e+05  3.72e-06 1.87e-07  8.06e-08   423s

Barrier solved model in 83 iterations and 423.20 seconds (248.76 work units)
Optimal objective 4.62964963e+05

Crossover log...

   34307 DPushes remaining with DInf 1.2029317e-04               423s
       0 DPushes remaining with DInf 1.2029317e-04               424s

   66765 PPushes remaining with PInf 3.5462650e+00               424s
   29427 PPushes remaining with PInf 5.8262703e-01               425s
    3198 PPushes remaining with PInf 5.2278642e-02               430s
       0 PPushes remaining with PInf 0.0000000e+00               431s

  Push phase complete: Pinf 0.0000000e+00, Dinf 2.1008539e+02    431s

Iteration    Objective       Primal Inf.    Dual Inf.      Time
   84674    4.6308150e+05   0.000000e+00   2.100854e+02    431s
   88475    4.6284139e+05   0.000000e+00   0.000000e+00    435s
Extra simplex iterations after uncrush: 80
   88555    4.6284139e+05   0.000000e+00   0.000000e+00    436s

Solved in 88555 iterations and 436.19 seconds (261.22 work units)
Optimal objective  4.628413879e+05

Wrote result file 'output_data/TEMBA_2.0.sol'
No IIS available for current model

